2846
0
4
277
5
6
7
8
10
11
15
14
13
12
9
276
275
274
273
272
271
16
17
18
19
20
21
128
127
126
24
23
25
22
26
27
28
29
33
34
32
31
30
125
124
123
122
121
120
119
157
158
159
160
175
161
162
163
164
172
171
170
106
173
174
107
105
104
108
110
111
114
115
117
118
61
60
43
42
41
40
39
38
35
36
37
49
50
51
52
53
48
47
54
55
46
45
56
57
44
58
59
63
62
116
86
85
66
65
64
67
68
69
70
71
72
73
74
75
77
78
76
82
83
84
87
113
112
88
109
89
81
79
80
90
91
93
94
95
96
97
98
99
92
103
102
101
100
169
168
167
166
165
188
189
186
193
192
191
190
187
185
184
183
182
181
180
179
176
177
178
150
151
152
156
153
155
154
129
130
131
132
133
134
270
269
135
136
268
267
137
138
139
149
148
147
146
145
199
198
197
194
195
196
201
200
202
203
204
144
143
142
141
140
266
265
264
263
262
261
260
259
258
257
254
253
206
205
207
212
213
216
217
220
221
222
219
218
215
214
211
210
209
208
252
255
256
249
250
251
230
229
228
227
226
225
223
224
234
235
236
233
232
237
238
231
246
239
240
241
242
243
244
245
247
248
278
279
3
2
1
